n = 15;
colSum=[4,3,4,5,8,6,2,5,4,6,5,6,2,7,7];
rowSum=[4,8,7,15,7,8,6,3,5,4,2,2,1,1,1];
groups=[|1,1,1,2,2,2,2,2,3,3,3,3,3,3,4|1,1,1,1,2,2,2,2,3,3,5,3,6,6,4|1,7,8,9,9,2,2,5,5,5,5,3,6,6,6|8,7,8,8,9,9,9,5,5,10,10,3,3,3,6|8,8,8,8,10,10,10,10,10,10,11,11,11,11,6|8,10,10,10,10,12,12,12,12,12,13,13,11,11,6|8,10,10,10,8,14,12,12,14,12,13,15,15,15,13|8,8,8,8,8,14,12,14,14,12,13,13,15,15,13|8,8,8,16,16,14,14,14,14,14,13,13,13,13,13|8,16,16,16,16,16,17,17,17,17,18,13,18,18,13|8,17,17,17,16,16,17,17,17,17,18,13,18,13,13|17,17,17,16,16,17,17,18,18,18,18,18,18,13,13|17,17,17,16,17,17,17,17,18,18,18,18,18,18,13|17,17,17,16,17,17,17,17,18,18,18,18,18,13,13|17,17,17,17,17,17,17,17,17,17,18,18,18,18,18|];
rowN = 18;
colN = 18;
pair=[|0,1,0,0,0,0,1,1,1,0,0,0,0,0,0|1,0,1,0,1,0,0,0,1,0,0,0,0,0,0|0,0,0,1,1,1,0,0,0,0,1,0,0,0,0|0,0,0,0,0,1,0,0,0,0,0,0,0,0,0|0,0,1,0,0,0,0,0,0,1,0,0,0,0,0|0,0,1,1,0,0,0,0,0,0,0,0,1,0,0|0,0,0,0,0,0,0,1,0,0,0,0,0,0,0|0,0,0,0,0,0,1,0,1,1,0,0,0,1,0|0,1,0,0,1,0,0,1,0,1,0,0,0,0,0|0,0,1,0,0,0,0,1,0,0,1,1,0,0,0|0,0,0,0,0,1,0,0,0,0,0,0,1,0,1|0,0,0,0,0,0,0,0,0,0,0,0,1,1,0|0,0,0,0,0,0,0,0,0,0,1,0,0,0,1|0,0,0,0,0,0,0,0,0,0,0,1,1,0,0|0,0,0,0,0,0,0,0,0,0,0,0,1,0,0|];
